200 200
137 32
60 14
3 14
44 10
3 7
13 7
3 18
3 3
13 3
44 8
16 8
65 10
24 10
15 20
33 80
36 160
27 160
65 10
6 4
18 4
6 6
18 6
30 17
27 17
10 3
7 3
15 39
15 60
10 19
3 5
4 5
3 14
4 14
30 5
27 5
57 17
10 10
7 10
10 7
7 7
74 21
15 21
4 3
10 3
5 6
85 21
33 88
4 3
10 3
3 3
11 3
5 15
3 12
11 12
19 67
43 51
42 51
43 16
42 16
36 8
24 4
3 4
24 4
3 4
